<?xml version = "1.0" encoding="UTF-8" standalone="yes"?>
<CPLEXSolution version="1.2">
 <header
   problemName=""
   solutionName="incumbent"
   solutionIndex="-1"
   objectiveValue="90264.999999999985"
   solutionTypeValue="3"
   solutionTypeString="primal"
   solutionStatusValue="101"
   solutionStatusString="integer optimal solution"
   solutionMethodString="mip"
   primalFeasible="1"
   dualFeasible="1"
   MIPNodes="0"
   MIPIterations="10"
   writeLevel="1"/>
 <quality
   epInt="1.0000000000000001e-05"
   epRHS="9.9999999999999995e-07"
   maxIntInfeas="0"
   maxPrimalInfeas="9.0949470177292824e-13"
   maxX="5000.0000000000009"
   maxSlack="10000"/>
 <linearConstraints>
  <constraint index="0" slack="0"/>
  <constraint index="1" slack="0"/>
  <constraint index="2" slack="0"/>
  <constraint index="3" slack="0"/>
  <constraint index="4" slack="0"/>
  <constraint index="5" slack="0"/>
  <constraint index="6" slack="4999.9999999999991"/>
  <constraint index="7" slack="9.0949470177292824e-13"/>
  <constraint index="8" slack="4000"/>
  <constraint index="9" slack="7000.0000000000009"/>
  <constraint index="10" slack="2999.9999999999991"/>
  <constraint index="11" slack="0"/>
  <constraint index="12" slack="4000"/>
  <constraint index="13" slack="0"/>
  <constraint index="14" slack="0"/>
  <constraint index="15" slack="6999.9999999999991"/>
  <constraint index="16" slack="10000"/>
  <constraint index="17" slack="6000"/>
  <constraint index="18" slack="9000"/>
  <constraint index="19" slack="4999.9999999999991"/>
  <constraint index="20" slack="10000"/>
  <constraint index="21" slack="6000"/>
  <constraint index="22" slack="10000"/>
  <constraint index="23" slack="10000"/>
  <constraint index="24" slack="0"/>
 </linearConstraints>
 <variables>
  <variable name="xa1" index="0" value="3000.0000000000009"/>
  <variable name="xa2" index="1" value="-9.0949470177292824e-13"/>
  <variable name="xa3" index="2" value="4000"/>
  <variable name="xb1" index="3" value="999.99999999999909"/>
  <variable name="xb2" index="4" value="5000.0000000000009"/>
  <variable name="xb3" index="5" value="0"/>
  <variable name="xc1" index="6" value="4000"/>
  <variable name="xc2" index="7" value="0"/>
  <variable name="xc3" index="8" value="0"/>
  <variable name="ta1" index="9" value="1"/>
  <variable name="ta2" index="10" value="0"/>
  <variable name="ta3" index="11" value="1"/>
  <variable name="tb1" index="12" value="1"/>
  <variable name="tb2" index="13" value="1"/>
  <variable name="tb3" index="14" value="0"/>
  <variable name="tc1" index="15" value="1"/>
  <variable name="tc2" index="16" value="0"/>
  <variable name="tc3" index="17" value="0"/>
  <variable name="T5" index="18" value="1"/>
  <variable name="x20" index="19" value="0"/>
  <variable name="x21" index="20" value="0"/>
  <variable name="x22" index="21" value="0"/>
  <variable name="x23" index="22" value="0"/>
  <variable name="x24" index="23" value="0"/>
  <variable name="x25" index="24" value="0"/>
  <variable name="x26" index="25" value="0"/>
  <variable name="x27" index="26" value="0"/>
  <variable name="x28" index="27" value="0"/>
  <variable name="x29" index="28" value="0"/>
  <variable name="x30" index="29" value="0"/>
  <variable name="x31" index="30" value="0"/>
  <variable name="x32" index="31" value="0"/>
  <variable name="x33" index="32" value="0"/>
  <variable name="x34" index="33" value="0"/>
  <variable name="x35" index="34" value="0"/>
  <variable name="x36" index="35" value="0"/>
  <variable name="x37" index="36" value="0"/>
  <variable name="x38" index="37" value="0"/>
 </variables>
</CPLEXSolution>
